750
300 300
1 210 226
2 210 760
3 210 486
4 209 123
5 209 421
6 209 433
7 208 44
8 208 284
9 208 826
10 206 815
11 206 663
12 205 848
13 205 974
14 205 291
15 205 691
16 205 809
17 204 33
18 204 735
19 204 617
20 204 731
21 204 141
22 204 827
23 204 116
24 204 626
25 203 534
26 203 643
27 203 681
28 203 554
29 202 688
30 201 425
31 201 207
32 201 141
33 201 896
34 200 805
35 200 943
36 200 179
37 200 459
38 199 933
39 199 373
40 198 147
41 198 69
42 198 534
43 197 219
44 197 151
45 197 456
46 197 633
47 196 668
48 196 965
49 196 961
50 196 314
51 195 120
52 195 58
53 194 874
54 194 664
55 194 737
56 193 47
57 193 711
58 193 970
59 193 636
60 192 803
61 192 185
62 192 703
63 192 943
64 192 944
65 192 306
66 192 42
67 192 769
68 192 244
69 192 671
70 191 189
71 191 491
72 191 548
73 191 91
74 190 43
75 190 411
76 190 354
77 190 341
78 190 896
79 190 390
80 189 39
81 189 435
82 189 854
83 189 523
84 188 900
85 188 687
86 188 69
87 188 383
88 188 857
89 188 266
90 187 687
91 187 980
92 187 151
93 186 958
94 185 831
95 185 287
96 185 896
97 185 307
98 185 216
99 185 829
100 184 290
101 184 848
102 183 759
103 183 408
104 183 404
105 182 481
106 182 18
107 182 85
108 182 188
109 182 875
110 181 855
111 181 641
112 181 715
113 181 106
114 181 951
115 181 875
116 180 654
117 180 32
118 179 490
119 178 604
120 178 173
121 178 189
122 178 483
123 177 862
124 177 74
125 177 903
126 176 316
127 176 695
128 176 679
129 176 877
130 176 42
131 175 830
132 174 854
133 174 36
134 173 205
135 173 729
136 172 683
137 172 693
138 172 157
139 172 339
140 172 298
141 172 781
142 171 394
143 171 778
144 171 302
145 171 368
146 171 892
147 171 304
148 171 196
149 171 631
150 171 86
151 171 156
152 170 644
153 170 762
154 170 313
155 170 510
156 169 394
157 169 110
158 169 726
159 169 307
160 169 553
161 169 524
162 168 127
163 168 13
164 168 533
165 168 666
166 167 901
167 167 347
168 167 482
169 167 805
170 167 723
171 167 380
172 166 478
173 166 468
174 166 776
175 166 962
176 166 184
177 166 943
178 166 689
179 165 42
180 165 883
181 165 890
182 165 614
183 164 778
184 164 152
185 164 3
186 163 305
187 162 173
188 162 88
189 161 496
190 161 60
191 161 672
192 161 185
193 161 545
194 160 141
195 160 360
196 160 649
197 160 638
198 160 663
199 160 557
200 160 707
201 160 128
202 159 59
203 159 902
204 159 812
205 158 520
206 158 114
207 158 138
208 158 386
209 158 971
210 158 536
211 158 369
212 158 51
213 157 282
214 157 517
215 156 379
216 156 220
217 155 887
218 155 815
219 155 697
220 155 508
221 155 401
222 154 181
223 154 375
224 154 918
225 154 994
226 154 927
227 154 555
228 154 991
229 154 972
230 154 558
231 154 926
232 153 858
233 153 349
234 153 240
235 153 984
236 152 753
237 152 442
238 152 17
239 152 295
240 152 273
241 152 451
242 152 817
243 152 6
244 151 916
245 151 854
246 151 927
247 151 150
248 151 164
249 151 426
250 151 268
251 151 424
252 150 750
253 150 663
254 150 225
255 150 721
256 149 327
257 149 725
258 149 701
259 149 974
260 148 752
261 148 848
262 148 180
263 147 984
264 147 643
265 147 715
266 147 4
267 146 746
268 146 752
269 146 376
270 146 595
271 146 373
272 146 919
273 145 511
274 145 459
275 145 722
276 145 927
277 145 418
278 145 319
279 144 999
280 144 765
281 144 618
282 143 836
283 143 359
284 143 3
285 143 796
286 142 495
287 142 741
288 142 954
289 142 150
290 142 523
291 142 52
292 142 690
293 142 797
294 141 425
295 141 264
296 141 955
297 141 70
298 141 71
299 141 339
300 140 660
301 140 626
302 140 983
303 139 868
304 139 414
305 139 587
306 139 451
307 138 760
308 138 793
309 138 560
310 138 687
311 137 368
312 137 239
313 137 226
314 137 22
315 137 545
316 137 695
317 136 862
318 136 543
319 136 347
320 135 344
321 135 523
322 135 361
323 135 612
324 135 152
325 134 829
326 134 413
327 134 306
328 133 304
329 133 890
330 133 281
331 133 564
332 132 257
333 132 687
334 132 760
335 132 445
336 131 887
337 131 624
338 131 540
339 131 542
340 130 782
341 130 231
342 130 530
343 130 657
344 130 980
345 129 262
346 129 591
347 129 812
348 129 507
349 129 892
350 128 324
351 128 662
352 128 272
353 127 777
354 127 671
355 127 337
356 127 427
357 127 841
358 126 803
359 126 990
360 126 981
361 126 519
362 125 716
363 124 94
364 123 978
365 123 409
366 123 564
367 123 914
368 123 963
369 123 618
370 123 891
371 122 99
372 121 759
373 121 276
374 121 510
375 121 921
376 120 225
377 120 667
378 120 743
379 120 803
380 120 751
381 119 760
382 119 611
383 119 269
384 118 847
385 118 962
386 118 193
387 118 995
388 117 179
389 117 218
390 117 555
391 117 277
392 117 689
393 117 764
394 117 736
395 116 584
396 115 358
397 115 663
398 115 794
399 114 133
400 114 392
401 114 908
402 114 206
403 114 538
404 114 170
405 114 142
406 114 790
407 114 700
408 113 843
409 113 838
410 113 105
411 113 759
412 113 723
413 112 615
414 112 853
415 112 938
416 111 637
417 111 774
418 111 674
419 110 449
420 110 694
421 109 84
422 109 407
423 109 322
424 109 188
425 108 249
426 108 131
427 108 311
428 108 720
429 107 389
430 107 655
431 107 928
432 107 527
433 107 984
434 107 138
435 107 839
436 107 647
437 106 837
438 106 548
439 106 553
440 106 805
441 106 771
442 106 701
443 105 426
444 105 340
445 105 725
446 105 212
447 105 284
448 104 884
449 104 846
450 104 789
451 104 732
452 104 243
453 103 994
454 103 66
455 103 739
456 103 79
457 103 415
458 103 241
459 103 840
460 103 139
461 103 295
462 102 47
463 102 477
464 102 83
465 102 886
466 102 248
467 102 449
468 102 524
469 101 315
470 101 632
471 100 941
472 100 441
473 100 890
474 100 153
475 100 775
476 100 216
477 99 215
478 99 528
479 99 509
480 98 254
481 98 582
482 98 657
483 98 109
484 98 966
485 97 590
486 97 670
487 96 223
488 95 572
489 94 431
490 94 46
491 94 277
492 94 742
493 93 191
494 93 308
495 93 190
496 93 102
497 93 920
498 93 469
499 92 708
500 92 272
501 91 648
502 90 623
503 90 645
504 90 620
505 90 929
506 89 790
507 88 773
508 88 295
509 87 966
510 87 541
511 87 106
512 87 58
513 87 536
514 86 791
515 86 716
516 86 858
517 86 251
518 86 324
519 85 538
520 85 465
521 85 698
522 85 527
523 85 836
524 85 91
525 84 122
526 84 20
527 83 33
528 83 574
529 83 568
530 83 34
531 83 968
532 82 475
533 82 957
534 82 505
535 82 195
536 82 353
537 82 823
538 82 852
539 81 752
540 81 552
541 81 556
542 81 123
543 81 752
544 81 414
545 81 642
546 80 392
547 80 44
548 80 834
549 79 758
550 79 54
551 79 60
552 79 419
553 79 859
554 79 66
555 78 934
556 78 904
557 78 86
558 78 675
559 77 167
560 77 535
561 77 627
562 76 487
563 76 889
564 76 853
565 76 610
566 76 780
567 76 193
568 75 750
569 75 205
570 75 248
571 75 973
572 75 557
573 75 983
574 75 991
575 74 759
576 74 465
577 73 486
578 73 565
579 73 163
580 73 214
581 72 674
582 72 258
583 72 182
584 71 812
585 71 272
586 71 472
587 71 417
588 71 919
589 71 14
590 71 382
591 71 748
592 70 737
593 70 156
594 69 851
595 69 805
596 69 922
597 68 137
598 68 810
599 68 354
600 68 527
601 67 226
602 67 829
603 67 11
604 67 722
605 67 826
606 67 849
607 67 777
608 66 832
609 66 607
610 66 756
611 66 395
612 66 373
613 65 815
614 65 120
615 65 339
616 65 207
617 64 866
618 64 405
619 64 671
620 64 668
621 63 457
622 63 986
623 63 656
624 63 844
625 63 498
626 63 126
627 62 819
628 61 86
629 61 765
630 61 874
631 61 779
632 60 472
633 60 968
634 60 400
635 59 811
636 59 704
637 58 863
638 58 466
639 58 394
640 58 677
641 58 304
642 58 458
643 58 554
644 57 222
645 57 517
646 57 505
647 56 201
648 56 356
649 56 178
650 56 85
651 55 83
652 55 962
653 55 89
654 55 989
655 55 433
656 54 695
657 53 294
658 53 445
659 53 900
660 53 398
661 53 766
662 53 962
663 52 976
664 51 537
665 51 288
666 51 547
667 51 590
668 50 810
669 50 299
670 50 631
671 50 279
672 50 826
673 50 564
674 49 242
675 49 366
676 49 653
677 48 632
678 48 755
679 48 498
680 48 496
681 47 577
682 47 814
683 47 589
684 47 689
685 46 190
686 46 706
687 46 558
688 46 895
689 46 934
690 46 850
691 45 493
692 45 259
693 44 993
694 44 601
695 44 646
696 44 430
697 43 484
698 43 255
699 43 56
700 43 475
701 42 806
702 42 270
703 42 480
704 42 92
705 42 989
706 42 856
707 42 267
708 41 74
709 40 500
710 40 409
711 40 342
712 40 152
713 40 555
714 40 141
715 40 741
716 39 627
717 39 235
718 39 613
719 39 722
720 38 889
721 37 160
722 37 610
723 37 687
724 36 123
725 36 748
726 36 626
727 36 602
728 36 526
729 36 1000
730 36 335
731 35 664
732 35 851
733 34 796
734 34 55
735 34 735
736 34 955
737 32 614
738 32 342
739 32 408
740 32 300
741 32 470
742 31 878
743 31 222
744 31 486
745 31 542
746 30 743
747 30 265
748 30 968
749 30 449
750 30 627
